fifo_formal_verification/formal/fifo_formal/model/design_smt2.smt2
; SMT-LIBv2 description generated by Yosys 0.66 (git sha1 7f8fdfd8d7bc08c749a2a969388d3425d4f369d5, clang++ 17.0.0 -fPIC -O3)
; yosys-smt2-module fifo_assertions
(declare-sort |fifo_assertions_s| 0)
(declare-fun |fifo_assertions_is| (|fifo_assertions_s|) Bool)
; yosys-smt2-witness {"offset": 0, "path": ["$auto$async2sync.cc:116:execute$95"], "smtname": 0, "smtoffset": 0, "type": "reg", "width": 1}
(declare-fun |fifo_assertions#0| (|fifo_assertions_s|) (_ BitVec 1)) ; $auto$async2sync.cc:116:execute$95
; yosys-smt2-register $auto$async2sync.cc:116:execute$95 1
(define-fun |fifo_assertions_n $auto$async2sync.cc:116:execute$95| ((state |fifo_assertions_s|)) Bool (= ((_ extract 0 0) (|fifo_assertions#0| state)) #b1))
; yosys-smt2-witness {"offset": 0, "path": ["$auto$async2sync.cc:107:execute$91"], "smtname": 1, "smtoffset": 0, "type": "reg", "width": 1}
(declare-fun |fifo_assertions#1| (|fifo_assertions_s|) (_ BitVec 1)) ; $auto$async2sync.cc:107:execute$91
; yosys-smt2-register $auto$async2sync.cc:107:execute$91 1
(define-fun |fifo_assertions_n $auto$async2sync.cc:107:execute$91| ((state |fifo_assertions_s|)) Bool (= ((_ extract 0 0) (|fifo_assertions#1| state)) #b1))
(declare-fun |fifo_assertions#2| (|fifo_assertions_s|) Bool) ; \clk
; yosys-smt2-input clk 1
; yosys-smt2-wire clk 1
; yosys-smt2-clock clk posedge
; yosys-smt2-witness {"offset": 0, "path": ["\\clk"], "smtname": "clk", "smtoffset": 0, "type": "posedge", "width": 1}
; yosys-smt2-witness {"offset": 0, "path": ["\\clk"], "smtname": "clk", "smtoffset": 0, "type": "input", "width": 1}
(define-fun |fifo_assertions_n clk| ((state |fifo_assertions_s|)) Bool (|fifo_assertions#2| state))
(declare-fun |fifo_assertions#3| (|fifo_assertions_s|) Bool) ; \empty
; yosys-smt2-input empty 1
; yosys-smt2-wire empty 1
; yosys-smt2-witness {"offset": 0, "path": ["\\empty"], "smtname": "empty", "smtoffset": 0, "type": "input", "width": 1}
(define-fun |fifo_assertions_n empty| ((state |fifo_assertions_s|)) Bool (|fifo_assertions#3| state))
(declare-fun |fifo_assertions#4| (|fifo_assertions_s|) Bool) ; \full
; yosys-smt2-input full 1
; yosys-smt2-wire full 1
; yosys-smt2-witness {"offset": 0, "path": ["\\full"], "smtname": "full", "smtoffset": 0, "type": "input", "width": 1}
(define-fun |fifo_assertions_n full| ((state |fifo_assertions_s|)) Bool (|fifo_assertions#4| state))
(declare-fun |fifo_assertions#5| (|fifo_assertions_s|) Bool) ; \reset
; yosys-smt2-input reset 1
; yosys-smt2-wire reset 1
; yosys-smt2-witness {"offset": 0, "path": ["\\reset"], "smtname": "reset", "smtoffset": 0, "type": "input", "width": 1}
(define-fun |fifo_assertions_n reset| ((state |fifo_assertions_s|)) Bool (|fifo_assertions#5| state))
(define-fun |fifo_assertions#6| ((state |fifo_assertions_s|)) (_ BitVec 1) (bvnot (ite (|fifo_assertions#2| state) #b1 #b0))) ; $auto$rtlil.cc:3255:Not$178
; yosys-smt2-assume 0 $auto$formalff.cc:987:execute$179
(define-fun |fifo_assertions_u 0| ((state |fifo_assertions_s|)) Bool (or (= ((_ extract 0 0) (|fifo_assertions#6| state)) #b1) (not true))) ; $auto$formalff.cc:987:execute$179
; yosys-smt2-assert 0 _witness_.check_assert_fifo_assertions_sv_11_2 fifo_assertions.sv:11.9-11.23
(define-fun |fifo_assertions_a 0| ((state |fifo_assertions_s|)) Bool (or (= ((_ extract 0 0) (|fifo_assertions#0| state)) #b1) (not (= ((_ extract 0 0) (|fifo_assertions#1| state)) #b1)))) ; _witness_.check_assert_fifo_assertions_sv_11_2
(define-fun |fifo_assertions#7| ((state |fifo_assertions_s|)) (_ BitVec 1) (ite (|fifo_assertions#4| state) #b1 #b0)) ; $assert$fifo_assertions.sv:11$2_EN
(define-fun |fifo_assertions#8| ((state |fifo_assertions_s|)) Bool (not (or  (|fifo_assertions#3| state) false))) ; $logic_not$fifo_assertions.sv:11$3_Y
(define-fun |fifo_assertions_a| ((state |fifo_assertions_s|)) Bool 
  (|fifo_assertions_a 0| state)
)
(define-fun |fifo_assertions_u| ((state |fifo_assertions_s|)) Bool 
  (|fifo_assertions_u 0| state)
)
(define-fun |fifo_assertions_i| ((state |fifo_assertions_s|)) Bool (and
  (= (= ((_ extract 0 0) (|fifo_assertions#0| state)) #b1) true) ; $auto$async2sync.cc:116:execute$95
  (= (= ((_ extract 0 0) (|fifo_assertions#1| state)) #b1) false) ; $auto$async2sync.cc:107:execute$91
))
(define-fun |fifo_assertions_h| ((state |fifo_assertions_s|)) Bool true)
(define-fun |fifo_assertions_t| ((state |fifo_assertions_s|) (next_state |fifo_assertions_s|)) Bool (and
  (= (|fifo_assertions#7| state) (|fifo_assertions#1| next_state)) ; $auto$async2sync.cc:110:execute$93 $auto$async2sync.cc:107:execute$91
  (= (ite (|fifo_assertions#8| state) #b1 #b0) (|fifo_assertions#0| next_state)) ; $auto$async2sync.cc:118:execute$96 $auto$async2sync.cc:116:execute$95
)) ; end of module fifo_assertions
; yosys-smt2-module fifo
(declare-sort |fifo_s| 0)
(declare-fun |fifo_is| (|fifo_s|) Bool)
; yosys-smt2-anyseq fifo#0 8 $auto$setundef.cc:550:execute$160
; yosys-smt2-witness {"offset": 0, "path": ["\\_witness_", "\\anyseq_auto_setundef_cc_550_execute_160"], "smtname": 0, "smtoffset": 0, "type": "seq", "width": 8}
(declare-fun |fifo#0| (|fifo_s|) (_ BitVec 8)) ; \_witness_.anyseq_auto_setundef_cc_550_execute_160
; yosys-smt2-wire _witness_.anyseq_auto_setundef_cc_550_execute_160 8
(define-fun |fifo_n _witness_.anyseq_auto_setundef_cc_550_execute_160| ((state |fifo_s|)) (_ BitVec 8) (|fifo#0| state))
; yosys-smt2-anyseq fifo#1 2 $auto$setundef.cc:550:execute$158
; yosys-smt2-witness {"offset": 0, "path": ["\\_witness_", "\\anyseq_auto_setundef_cc_550_execute_158"], "smtname": 1, "smtoffset": 0, "type": "seq", "width": 2}
(declare-fun |fifo#1| (|fifo_s|) (_ BitVec 2)) ; \_witness_.anyseq_auto_setundef_cc_550_execute_158
; yosys-smt2-wire _witness_.anyseq_auto_setundef_cc_550_execute_158 2
(define-fun |fifo_n _witness_.anyseq_auto_setundef_cc_550_execute_158| ((state |fifo_s|)) (_ BitVec 2) (|fifo#1| state))
; yosys-smt2-anyseq fifo#2 8 $auto$setundef.cc:550:execute$156
; yosys-smt2-witness {"offset": 0, "path": ["\\_witness_", "\\anyseq_auto_setundef_cc_550_execute_156"], "smtname": 2, "smtoffset": 0, "type": "seq", "width": 8}
(declare-fun |fifo#2| (|fifo_s|) (_ BitVec 8)) ; \_witness_.anyseq_auto_setundef_cc_550_execute_156
; yosys-smt2-wire _witness_.anyseq_auto_setundef_cc_550_execute_156 8
(define-fun |fifo_n _witness_.anyseq_auto_setundef_cc_550_execute_156| ((state |fifo_s|)) (_ BitVec 8) (|fifo#2| state))
; yosys-smt2-anyseq fifo#3 2 $auto$setundef.cc:550:execute$162
; yosys-smt2-witness {"offset": 0, "path": ["\\_witness_", "\\anyseq_auto_setundef_cc_550_execute_162"], "smtname": 3, "smtoffset": 0, "type": "seq", "width": 2}
(declare-fun |fifo#3| (|fifo_s|) (_ BitVec 2)) ; \_witness_.anyseq_auto_setundef_cc_550_execute_162
; yosys-smt2-wire _witness_.anyseq_auto_setundef_cc_550_execute_162 2
(define-fun |fifo_n _witness_.anyseq_auto_setundef_cc_550_execute_162| ((state |fifo_s|)) (_ BitVec 2) (|fifo#3| state))
(declare-fun |fifo#4| (|fifo_s|) Bool) ; \clk
; yosys-smt2-input clk 1
; yosys-smt2-wire clk 1
; yosys-smt2-clock clk posedge
; yosys-smt2-witness {"offset": 0, "path": ["\\clk"], "smtname": "clk", "smtoffset": 0, "type": "posedge", "width": 1}
; yosys-smt2-witness {"offset": 0, "path": ["\\clk"], "smtname": "clk", "smtoffset": 0, "type": "input", "width": 1}
(define-fun |fifo_n clk| ((state |fifo_s|)) Bool (|fifo#4| state))
; yosys-smt2-anyinit fifo#5 3 fifo.sv:21.1-39.4
; yosys-smt2-witness {"offset": 0, "path": ["\\count"], "smtname": 5, "smtoffset": 0, "type": "init", "width": 3}
(declare-fun |fifo#5| (|fifo_s|) (_ BitVec 3)) ; \count
; yosys-smt2-register count 3
; yosys-smt2-wire count 3
(define-fun |fifo_n count| ((state |fifo_s|)) (_ BitVec 3) (|fifo#5| state))
(declare-fun |fifo#6| (|fifo_s|) (_ BitVec 8)) ; \data_in
; yosys-smt2-input data_in 8
; yosys-smt2-wire data_in 8
; yosys-smt2-witness {"offset": 0, "path": ["\\data_in"], "smtname": "data_in", "smtoffset": 0, "type": "input", "width": 8}
(define-fun |fifo_n data_in| ((state |fifo_s|)) (_ BitVec 8) (|fifo#6| state))
; yosys-smt2-anyinit fifo#7 8 fifo.sv:21.1-39.4
; yosys-smt2-witness {"offset": 0, "path": ["\\data_out"], "smtname": 7, "smtoffset": 0, "type": "init", "width": 8}
(declare-fun |fifo#7| (|fifo_s|) (_ BitVec 8)) ; \data_out
; yosys-smt2-output data_out 8
; yosys-smt2-register data_out 8
; yosys-smt2-wire data_out 8
(define-fun |fifo_n data_out| ((state |fifo_s|)) (_ BitVec 8) (|fifo#7| state))
(define-fun |fifo#8| ((state |fifo_s|)) Bool (not (or  (= ((_ extract 0 0) (|fifo#5| state)) #b1) (= ((_ extract 1 1) (|fifo#5| state)) #b1) (= ((_ extract 2 2) (|fifo#5| state)) #b1)))) ; \empty
; yosys-smt2-output empty 1
; yosys-smt2-wire empty 1
(define-fun |fifo_n empty| ((state |fifo_s|)) Bool (|fifo#8| state))
(define-fun |fifo#9| ((state |fifo_s|)) Bool (= (|fifo#5| state) #b100)) ; \full
; yosys-smt2-output full 1
; yosys-smt2-wire full 1
(define-fun |fifo_n full| ((state |fifo_s|)) Bool (|fifo#9| state))
(declare-fun |fifo#10| (|fifo_s|) Bool) ; \rd_en
; yosys-smt2-input rd_en 1
; yosys-smt2-wire rd_en 1
; yosys-smt2-witness {"offset": 0, "path": ["\\rd_en"], "smtname": "rd_en", "smtoffset": 0, "type": "input", "width": 1}
(define-fun |fifo_n rd_en| ((state |fifo_s|)) Bool (|fifo#10| state))
; yosys-smt2-anyinit fifo#11 2 fifo.sv:21.1-39.4
; yosys-smt2-witness {"offset": 0, "path": ["\\rd_ptr"], "smtname": 11, "smtoffset": 0, "type": "init", "width": 2}
(declare-fun |fifo#11| (|fifo_s|) (_ BitVec 2)) ; \rd_ptr
; yosys-smt2-register rd_ptr 2
; yosys-smt2-wire rd_ptr 2
(define-fun |fifo_n rd_ptr| ((state |fifo_s|)) (_ BitVec 2) (|fifo#11| state))
(declare-fun |fifo#12| (|fifo_s|) Bool) ; \reset
; yosys-smt2-input reset 1
; yosys-smt2-wire reset 1
; yosys-smt2-witness {"offset": 0, "path": ["\\reset"], "smtname": "reset", "smtoffset": 0, "type": "input", "width": 1}
(define-fun |fifo_n reset| ((state |fifo_s|)) Bool (|fifo#12| state))
(declare-fun |fifo#13| (|fifo_s|) Bool) ; \wr_en
; yosys-smt2-input wr_en 1
; yosys-smt2-wire wr_en 1
; yosys-smt2-witness {"offset": 0, "path": ["\\wr_en"], "smtname": "wr_en", "smtoffset": 0, "type": "input", "width": 1}
(define-fun |fifo_n wr_en| ((state |fifo_s|)) Bool (|fifo#13| state))
; yosys-smt2-anyinit fifo#14 2 fifo.sv:21.1-39.4
; yosys-smt2-witness {"offset": 0, "path": ["\\wr_ptr"], "smtname": 14, "smtoffset": 0, "type": "init", "width": 2}
(declare-fun |fifo#14| (|fifo_s|) (_ BitVec 2)) ; \wr_ptr
; yosys-smt2-register wr_ptr 2
; yosys-smt2-wire wr_ptr 2
(define-fun |fifo_n wr_ptr| ((state |fifo_s|)) (_ BitVec 2) (|fifo#14| state))
(define-fun |fifo#15| ((state |fifo_s|)) (_ BitVec 1) (bvnot (ite (|fifo#4| state) #b1 #b0))) ; $auto$rtlil.cc:3255:Not$175
; yosys-smt2-assume 0 $auto$formalff.cc:987:execute$176
(define-fun |fifo_u 0| ((state |fifo_s|)) Bool (or (= ((_ extract 0 0) (|fifo#15| state)) #b1) (not true))) ; $auto$formalff.cc:987:execute$176
(define-fun |fifo#16| ((state |fifo_s|)) (_ BitVec 2) (bvadd (|fifo#14| state) #b01)) ; $add$fifo.sv:29$19_Y
(define-fun |fifo#17| ((state |fifo_s|)) Bool (not (or  (|fifo#9| state) false))) ; $logic_not$fifo.sv:27$14_Y
(define-fun |fifo#18| ((state |fifo_s|)) Bool (and (or  (|fifo#13| state) false) (or  (|fifo#17| state) false))) ; $logic_and$fifo.sv:27$15_Y
(define-fun |fifo#19| ((state |fifo_s|)) (_ BitVec 2) (ite (|fifo#18| state) (|fifo#16| state) (|fifo#14| state))) ; $procmux$67_Y
(define-fun |fifo#20| ((state |fifo_s|)) (_ BitVec 2) (ite (|fifo#12| state) #b00 (|fifo#19| state))) ; $0\wr_ptr[1:0]
(define-fun |fifo#21| ((state |fifo_s|)) (_ BitVec 2) (bvadd (|fifo#11| state) #b01)) ; $add$fifo.sv:35$24_Y
(define-fun |fifo#22| ((state |fifo_s|)) Bool (not (or  (|fifo#8| state) false))) ; $logic_not$fifo.sv:33$21_Y
(define-fun |fifo#23| ((state |fifo_s|)) Bool (and (or  (|fifo#10| state) false) (or  (|fifo#22| state) false))) ; $logic_and$fifo.sv:33$22_Y
(define-fun |fifo#24| ((state |fifo_s|)) (_ BitVec 2) (ite (|fifo#23| state) (|fifo#21| state) (|fifo#11| state))) ; $procmux$61_Y
(define-fun |fifo#25| ((state |fifo_s|)) (_ BitVec 2) (ite (|fifo#12| state) #b00 (|fifo#24| state))) ; $0\rd_ptr[1:0]
; yosys-smt2-memory mem 2 8 1 1 sync
; yosys-smt2-witness {"path": ["\\mem"], "rom": false, "size": 4, "smtname": "mem", "statebv": false, "type": "mem", "uninitialized": [{"offset": 0, "width": 32}], "width": 8}
(declare-fun |fifo#26#0| (|fifo_s|) (Array (_ BitVec 2) (_ BitVec 8))) ; mem
(define-fun |fifo_m mem| ((state |fifo_s|)) (Array (_ BitVec 2) (_ BitVec 8)) (|fifo#26#0| state))
(define-fun |fifo_m:R0A mem| ((state |fifo_s|)) (_ BitVec 2) (|fifo#11| state)) ; \rd_ptr
(define-fun |fifo#27| ((state |fifo_s|)) (_ BitVec 8) (select (|fifo#26#0| state) (|fifo_m:R0A mem| state))) ; $memrd$\mem$fifo.sv:34$23_DATA
(define-fun |fifo_m:R0D mem| ((state |fifo_s|)) (_ BitVec 8) (|fifo#27| state))
(define-fun |fifo#28| ((state |fifo_s|)) (_ BitVec 8) (ite (|fifo#23| state) (|fifo#27| state) (|fifo#7| state))) ; $procmux$72_Y
(define-fun |fifo#29| ((state |fifo_s|)) (_ BitVec 8) (ite (|fifo#12| state) (|fifo#7| state) (|fifo#28| state))) ; $0\data_out[7:0]
(define-fun |fifo#30| ((state |fifo_s|)) (_ BitVec 3) (bvadd (|fifo#5| state) #b001)) ; $add$fifo.sv:30$20_Y
(define-fun |fifo#31| ((state |fifo_s|)) (_ BitVec 3) (ite (|fifo#18| state) (|fifo#30| state) (|fifo#5| state))) ; $procmux$54_Y
(define-fun |fifo#32| ((state |fifo_s|)) (_ BitVec 3) (bvsub (|fifo#5| state) #b001)) ; $auto$wreduce.cc:514:run$90 [2:0]
(define-fun |fifo#33| ((state |fifo_s|)) (_ BitVec 3) (ite (|fifo#23| state) (|fifo#32| state) (|fifo#31| state))) ; $procmux$56_Y
(define-fun |fifo#34| ((state |fifo_s|)) (_ BitVec 3) (ite (|fifo#12| state) #b000 (|fifo#33| state))) ; $0\count[2:0]
(define-fun |fifo#35| ((state |fifo_s|)) (_ BitVec 2) (ite (|fifo#18| state) (|fifo#14| state) (|fifo#1| state))) ; $2$memwr$\mem$fifo.sv:28$4_ADDR[1:0]$16
(define-fun |fifo#36| ((state |fifo_s|)) (_ BitVec 2) (ite (|fifo#12| state) (|fifo#3| state) (|fifo#35| state))) ; $0$memwr$\mem$fifo.sv:28$4_ADDR[1:0]$8
(define-fun |fifo#37| ((state |fifo_s|)) (_ BitVec 8) (ite (|fifo#18| state) (|fifo#6| state) (|fifo#2| state))) ; $2$memwr$\mem$fifo.sv:28$4_DATA[7:0]$17
(define-fun |fifo#38| ((state |fifo_s|)) (_ BitVec 8) (ite (|fifo#12| state) (|fifo#0| state) (|fifo#37| state))) ; $0$memwr$\mem$fifo.sv:28$4_DATA[7:0]$9
(define-fun |fifo#39| ((state |fifo_s|)) (_ BitVec 1) (ite (|fifo#18| state) #b1 #b0)) ; $2$memwr$\mem$fifo.sv:28$4_EN[7:0]$18 [0]
(define-fun |fifo#40| ((state |fifo_s|)) (_ BitVec 1) (ite (|fifo#12| state) #b0 (|fifo#39| state))) ; $0$memwr$\mem$fifo.sv:28$4_EN[7:0]$10 [0]
(define-fun |fifo_m:W0A mem| ((state |fifo_s|)) (_ BitVec 2) (|fifo#36| state)) ; $0$memwr$\mem$fifo.sv:28$4_ADDR[1:0]$8
(define-fun |fifo_m:W0D mem| ((state |fifo_s|)) (_ BitVec 8) (|fifo#38| state)) ; $0$memwr$\mem$fifo.sv:28$4_DATA[7:0]$9
(define-fun |fifo_m:W0M mem| ((state |fifo_s|)) (_ BitVec 8) (concat (|fifo#40| state) (concat (|fifo#40| state) (concat (|fifo#40| state) (concat (|fifo#40| state) (concat (|fifo#40| state) (concat (|fifo#40| state) (concat (|fifo#40| state) (|fifo#40| state))))))))) ; { $0$memwr$\mem$fifo.sv:28$4_EN[7:0]$10 [0] $0$memwr$\mem$fifo.sv:28$4_EN[7:0]$10 [0] $0$memwr$\mem$fifo.sv:28$4_EN[7:0]$10 [0] $0$memwr$\mem$fifo.sv:28$4_EN[7:0]$10 [0] $0$memwr$\mem$fifo.sv:28$4_EN[7:0]$10 [0] $0$memwr$\mem$fifo.sv:28$4_EN[7:0]$10 [0] $0$memwr$\mem$fifo.sv:28$4_EN[7:0]$10 [0] $0$memwr$\mem$fifo.sv:28$4_EN[7:0]$10 [0] }
(define-fun |fifo#26#1| ((state |fifo_s|)) (Array (_ BitVec 2) (_ BitVec 8)) (ite (= (|fifo_m:W0M mem| state) #b00000000) (|fifo#26#0| state) (store (|fifo#26#0| state) (|fifo_m:W0A mem| state) (bvor (bvand (|fifo_m:W0D mem| state) (|fifo_m:W0M mem| state)) (bvand (select (|fifo#26#0| state) (|fifo_m:W0A mem| state)) (bvnot (|fifo_m:W0M mem| state))))))) ; mem
(define-fun |fifo_a| ((state |fifo_s|)) Bool true)
(define-fun |fifo_u| ((state |fifo_s|)) Bool 
  (|fifo_u 0| state)
)
(define-fun |fifo_i| ((state |fifo_s|)) Bool true)
(define-fun |fifo_h| ((state |fifo_s|)) Bool true)
(define-fun |fifo_t| ((state |fifo_s|) (next_state |fifo_s|)) Bool (and
  (= (|fifo#20| state) (|fifo#14| next_state)) ; $procdff$80 \wr_ptr
  (= (|fifo#25| state) (|fifo#11| next_state)) ; $procdff$81 \rd_ptr
  (= (|fifo#29| state) (|fifo#7| next_state)) ; $procdff$79 \data_out
  (= (|fifo#34| state) (|fifo#5| next_state)) ; $procdff$82 \count
  (= (|fifo#26#1| state) (|fifo#26#0| next_state)) ; mem
)) ; end of module fifo
; yosys-smt2-module fifo_formal
(declare-sort |fifo_formal_s| 0)
(declare-fun |fifo_formal_is| (|fifo_formal_s|) Bool)
; yosys-smt2-anyseq fifo_formal#0 1 $auto$setundef.cc:350:execute$164
; yosys-smt2-witness {"offset": 0, "path": ["\\clk"], "smtname": 0, "smtoffset": 0, "type": "seq", "width": 1}
(declare-fun |fifo_formal#0| (|fifo_formal_s|) (_ BitVec 1)) ; \clk
; yosys-smt2-wire clk 1
; yosys-smt2-clock clk posedge
(define-fun |fifo_formal_n clk| ((state |fifo_formal_s|)) Bool (= ((_ extract 0 0) (|fifo_formal#0| state)) #b1))
; yosys-smt2-anyseq fifo_formal#1 8 $auto$setundef.cc:350:execute$166
; yosys-smt2-witness {"offset": 0, "path": ["\\data_in"], "smtname": 1, "smtoffset": 0, "type": "seq", "width": 8}
(declare-fun |fifo_formal#1| (|fifo_formal_s|) (_ BitVec 8)) ; \data_in
; yosys-smt2-wire data_in 8
(define-fun |fifo_formal_n data_in| ((state |fifo_formal_s|)) (_ BitVec 8) (|fifo_formal#1| state))
; yosys-smt2-cell fifo dut
; yosys-smt2-witness {"path": ["\\dut"], "smtname": "dut", "type": "cell"}
(declare-fun |fifo_formal#2| (|fifo_formal_s|) (_ BitVec 8)) ; \data_out
(declare-fun |fifo_formal#3| (|fifo_formal_s|) Bool) ; \empty
(declare-fun |fifo_formal#4| (|fifo_formal_s|) Bool) ; \full
(declare-fun |fifo_formal_h dut| (|fifo_formal_s|) |fifo_s|)
; yosys-smt2-wire data_out 8
(define-fun |fifo_formal_n data_out| ((state |fifo_formal_s|)) (_ BitVec 8) (|fifo_formal#2| state))
; yosys-smt2-wire empty 1
(define-fun |fifo_formal_n empty| ((state |fifo_formal_s|)) Bool (|fifo_formal#3| state))
; yosys-smt2-wire full 1
(define-fun |fifo_formal_n full| ((state |fifo_formal_s|)) Bool (|fifo_formal#4| state))
; yosys-smt2-anyseq fifo_formal#5 1 $auto$setundef.cc:350:execute$172
; yosys-smt2-witness {"offset": 0, "path": ["\\rd_en"], "smtname": 5, "smtoffset": 0, "type": "seq", "width": 1}
(declare-fun |fifo_formal#5| (|fifo_formal_s|) (_ BitVec 1)) ; \rd_en
; yosys-smt2-wire rd_en 1
(define-fun |fifo_formal_n rd_en| ((state |fifo_formal_s|)) Bool (= ((_ extract 0 0) (|fifo_formal#5| state)) #b1))
; yosys-smt2-anyseq fifo_formal#6 1 $auto$setundef.cc:350:execute$170
; yosys-smt2-witness {"offset": 0, "path": ["\\reset"], "smtname": 6, "smtoffset": 0, "type": "seq", "width": 1}
(declare-fun |fifo_formal#6| (|fifo_formal_s|) (_ BitVec 1)) ; \reset
; yosys-smt2-wire reset 1
(define-fun |fifo_formal_n reset| ((state |fifo_formal_s|)) Bool (= ((_ extract 0 0) (|fifo_formal#6| state)) #b1))
; yosys-smt2-anyseq fifo_formal#7 1 $auto$setundef.cc:350:execute$168
; yosys-smt2-witness {"offset": 0, "path": ["\\wr_en"], "smtname": 7, "smtoffset": 0, "type": "seq", "width": 1}
(declare-fun |fifo_formal#7| (|fifo_formal_s|) (_ BitVec 1)) ; \wr_en
; yosys-smt2-wire wr_en 1
(define-fun |fifo_formal_n wr_en| ((state |fifo_formal_s|)) Bool (= ((_ extract 0 0) (|fifo_formal#7| state)) #b1))
(define-fun |fifo_formal#8| ((state |fifo_formal_s|)) (_ BitVec 1) (bvnot (|fifo_formal#0| state))) ; $auto$rtlil.cc:3255:Not$181
; yosys-smt2-assume 0 $auto$formalff.cc:987:execute$182
(define-fun |fifo_formal_u 0| ((state |fifo_formal_s|)) Bool (or (= ((_ extract 0 0) (|fifo_formal#8| state)) #b1) (not true))) ; $auto$formalff.cc:987:execute$182
; yosys-smt2-cell fifo_assertions monitor_inst
; yosys-smt2-witness {"path": ["\\monitor_inst"], "smtname": "monitor_inst", "type": "cell"}
(declare-fun |fifo_formal_h monitor_inst| (|fifo_formal_s|) |fifo_assertions_s|)
(define-fun |fifo_formal_a| ((state |fifo_formal_s|)) Bool (and
  (|fifo_assertions_a| (|fifo_formal_h monitor_inst| state))
  (|fifo_a| (|fifo_formal_h dut| state))
))
(define-fun |fifo_formal_u| ((state |fifo_formal_s|)) Bool (and
  (|fifo_formal_u 0| state)
  (|fifo_assertions_u| (|fifo_formal_h monitor_inst| state))
  (|fifo_u| (|fifo_formal_h dut| state))
))
(define-fun |fifo_formal_i| ((state |fifo_formal_s|)) Bool (and
  (|fifo_assertions_i| (|fifo_formal_h monitor_inst| state))
  (|fifo_i| (|fifo_formal_h dut| state))
))
(define-fun |fifo_formal_h| ((state |fifo_formal_s|)) Bool (and
  (= (|fifo_formal_is| state) (|fifo_assertions_is| (|fifo_formal_h monitor_inst| state)))
  (= (= ((_ extract 0 0) (|fifo_formal#0| state)) #b1) (|fifo_assertions_n clk| (|fifo_formal_h monitor_inst| state))) ; fifo_assertions.clk
  (= (|fifo_formal#3| state) (|fifo_assertions_n empty| (|fifo_formal_h monitor_inst| state))) ; fifo_assertions.empty
  (= (|fifo_formal#4| state) (|fifo_assertions_n full| (|fifo_formal_h monitor_inst| state))) ; fifo_assertions.full
  (= (= ((_ extract 0 0) (|fifo_formal#6| state)) #b1) (|fifo_assertions_n reset| (|fifo_formal_h monitor_inst| state))) ; fifo_assertions.reset
  (= (|fifo_formal_is| state) (|fifo_is| (|fifo_formal_h dut| state)))
  (= (= ((_ extract 0 0) (|fifo_formal#0| state)) #b1) (|fifo_n clk| (|fifo_formal_h dut| state))) ; fifo.clk
  (= (|fifo_formal#1| state) (|fifo_n data_in| (|fifo_formal_h dut| state))) ; fifo.data_in
  (= (|fifo_formal#2| state) (|fifo_n data_out| (|fifo_formal_h dut| state))) ; fifo.data_out
  (= (|fifo_formal#3| state) (|fifo_n empty| (|fifo_formal_h dut| state))) ; fifo.empty
  (= (|fifo_formal#4| state) (|fifo_n full| (|fifo_formal_h dut| state))) ; fifo.full
  (= (= ((_ extract 0 0) (|fifo_formal#5| state)) #b1) (|fifo_n rd_en| (|fifo_formal_h dut| state))) ; fifo.rd_en
  (= (= ((_ extract 0 0) (|fifo_formal#6| state)) #b1) (|fifo_n reset| (|fifo_formal_h dut| state))) ; fifo.reset
  (= (= ((_ extract 0 0) (|fifo_formal#7| state)) #b1) (|fifo_n wr_en| (|fifo_formal_h dut| state))) ; fifo.wr_en
  (|fifo_assertions_h| (|fifo_formal_h monitor_inst| state))
  (|fifo_h| (|fifo_formal_h dut| state))
))
(define-fun |fifo_formal_t| ((state |fifo_formal_s|) (next_state |fifo_formal_s|)) Bool (and
  (|fifo_assertions_t| (|fifo_formal_h monitor_inst| state) (|fifo_formal_h monitor_inst| next_state))
  (|fifo_t| (|fifo_formal_h dut| state) (|fifo_formal_h dut| next_state))
)) ; end of module fifo_formal
; yosys-smt2-topmod fifo_formal
; end of yosys output
